TYPE: ATSP
DIMENSION: 8
FORMAT: FULL_MATRIX
OPT: 151
DATA_SECTION
0 17 22 45 33 26 50 37
18 0 31 12 40 29 34 48
28 25 0 16 14 30 22 38
45 23 11 0 19 24 32 21
39 44 29 17 0 41 18 36
35 31 24 27 16 0 13 40
44 38 19 32 20 18 0 26
30 42 21 35 15 50 28 0
EOF

